(set-logic QF_LRA)
(declare-fun X0 () Real )
(declare-fun Y0 () Real )
(declare-fun X1 () Real )
(declare-fun Y1 () Real )
(declare-fun X2 () Real )
(declare-fun Y2 () Real )
(declare-fun X3 () Real )
(declare-fun Y3 () Real )
(declare-fun X4 () Real )
(declare-fun Y4 () Real )
(declare-fun X5 () Real )
(declare-fun Y5 () Real )
(declare-fun X6 () Real )
(declare-fun Y6 () Real )
(declare-fun X7 () Real )
(declare-fun Y7 () Real )
(declare-fun X8 () Real )
(declare-fun Y8 () Real )
(declare-fun X9 () Real )
(declare-fun Y9 () Real )
(declare-fun X10 () Real )
(declare-fun Y10 () Real )
(declare-fun X11 () Real )
(declare-fun Y11 () Real )
(declare-fun X12 () Real )
(declare-fun Y12 () Real )
(declare-fun X13 () Real )
(declare-fun Y13 () Real )
(declare-fun X14 () Real )
(declare-fun Y14 () Real )
(declare-fun X15 () Real )
(declare-fun Y15 () Real )
(declare-fun X16 () Real )
(declare-fun Y16 () Real )
(declare-fun X17 () Real )
(declare-fun Y17 () Real )
(declare-fun Z () Real )
(assert ( and  
( or ( <= ( + X0 18 ) X1 )  ( <= ( + X1 4 ) X0 )  ( <= ( + Y0 72 ) Y1 )  ( <= ( + Y1 65 ) Y0 )  )
( or ( <= ( + X0 18 ) X2 )  ( <= ( + X2 100 ) X0 )  ( <= ( + Y0 72 ) Y2 )  ( <= ( + Y2 15 ) Y0 )  )
( or ( <= ( + X0 18 ) X3 )  ( <= ( + X3 2 ) X0 )  ( <= ( + Y0 72 ) Y3 )  ( <= ( + Y3 96 ) Y0 )  )
( or ( <= ( + X0 18 ) X4 )  ( <= ( + X4 62 ) X0 )  ( <= ( + Y0 72 ) Y4 )  ( <= ( + Y4 52 ) Y0 )  )
( or ( <= ( + X0 18 ) X5 )  ( <= ( + X5 37 ) X0 )  ( <= ( + Y0 72 ) Y5 )  ( <= ( + Y5 96 ) Y0 )  )
( or ( <= ( + X0 18 ) X6 )  ( <= ( + X6 34 ) X0 )  ( <= ( + Y0 72 ) Y6 )  ( <= ( + Y6 44 ) Y0 )  )
( or ( <= ( + X0 18 ) X7 )  ( <= ( + X7 1 ) X0 )  ( <= ( + Y0 72 ) Y7 )  ( <= ( + Y7 2 ) Y0 )  )
( or ( <= ( + X0 18 ) X8 )  ( <= ( + X8 51 ) X0 )  ( <= ( + Y0 72 ) Y8 )  ( <= ( + Y8 50 ) Y0 )  )
( or ( <= ( + X0 18 ) X9 )  ( <= ( + X9 98 ) X0 )  ( <= ( + Y0 72 ) Y9 )  ( <= ( + Y9 83 ) Y0 )  )
( or ( <= ( + X0 18 ) X10 )  ( <= ( + X10 7 ) X0 )  ( <= ( + Y0 72 ) Y10 )  ( <= ( + Y10 93 ) Y0 )  )
( or ( <= ( + X0 18 ) X11 )  ( <= ( + X11 51 ) X0 )  ( <= ( + Y0 72 ) Y11 )  ( <= ( + Y11 32 ) Y0 )  )
( or ( <= ( + X0 18 ) X12 )  ( <= ( + X12 36 ) X0 )  ( <= ( + Y0 72 ) Y12 )  ( <= ( + Y12 56 ) Y0 )  )
( or ( <= ( + X0 18 ) X13 )  ( <= ( + X13 7 ) X0 )  ( <= ( + Y0 72 ) Y13 )  ( <= ( + Y13 10 ) Y0 )  )
( or ( <= ( + X0 18 ) X14 )  ( <= ( + X14 64 ) X0 )  ( <= ( + Y0 72 ) Y14 )  ( <= ( + Y14 87 ) Y0 )  )
( or ( <= ( + X0 18 ) X15 )  ( <= ( + X15 54 ) X0 )  ( <= ( + Y0 72 ) Y15 )  ( <= ( + Y15 56 ) Y0 )  )
( or ( <= ( + X0 18 ) X16 )  ( <= ( + X16 58 ) X0 )  ( <= ( + Y0 72 ) Y16 )  ( <= ( + Y16 11 ) Y0 )  )
( or ( <= ( + X0 18 ) X17 )  ( <= ( + X17 79 ) X0 )  ( <= ( + Y0 72 ) Y17 )  ( <= ( + Y17 100 ) Y0 )  )
( or ( <= ( + X1 4 ) X2 )  ( <= ( + X2 100 ) X1 )  ( <= ( + Y1 65 ) Y2 )  ( <= ( + Y2 15 ) Y1 )  )
( or ( <= ( + X1 4 ) X3 )  ( <= ( + X3 2 ) X1 )  ( <= ( + Y1 65 ) Y3 )  ( <= ( + Y3 96 ) Y1 )  )
( or ( <= ( + X1 4 ) X4 )  ( <= ( + X4 62 ) X1 )  ( <= ( + Y1 65 ) Y4 )  ( <= ( + Y4 52 ) Y1 )  )
( or ( <= ( + X1 4 ) X5 )  ( <= ( + X5 37 ) X1 )  ( <= ( + Y1 65 ) Y5 )  ( <= ( + Y5 96 ) Y1 )  )
( or ( <= ( + X1 4 ) X6 )  ( <= ( + X6 34 ) X1 )  ( <= ( + Y1 65 ) Y6 )  ( <= ( + Y6 44 ) Y1 )  )
( or ( <= ( + X1 4 ) X7 )  ( <= ( + X7 1 ) X1 )  ( <= ( + Y1 65 ) Y7 )  ( <= ( + Y7 2 ) Y1 )  )
( or ( <= ( + X1 4 ) X8 )  ( <= ( + X8 51 ) X1 )  ( <= ( + Y1 65 ) Y8 )  ( <= ( + Y8 50 ) Y1 )  )
( or ( <= ( + X1 4 ) X9 )  ( <= ( + X9 98 ) X1 )  ( <= ( + Y1 65 ) Y9 )  ( <= ( + Y9 83 ) Y1 )  )
( or ( <= ( + X1 4 ) X10 )  ( <= ( + X10 7 ) X1 )  ( <= ( + Y1 65 ) Y10 )  ( <= ( + Y10 93 ) Y1 )  )
( or ( <= ( + X1 4 ) X11 )  ( <= ( + X11 51 ) X1 )  ( <= ( + Y1 65 ) Y11 )  ( <= ( + Y11 32 ) Y1 )  )
( or ( <= ( + X1 4 ) X12 )  ( <= ( + X12 36 ) X1 )  ( <= ( + Y1 65 ) Y12 )  ( <= ( + Y12 56 ) Y1 )  )
( or ( <= ( + X1 4 ) X13 )  ( <= ( + X13 7 ) X1 )  ( <= ( + Y1 65 ) Y13 )  ( <= ( + Y13 10 ) Y1 )  )
( or ( <= ( + X1 4 ) X14 )  ( <= ( + X14 64 ) X1 )  ( <= ( + Y1 65 ) Y14 )  ( <= ( + Y14 87 ) Y1 )  )
( or ( <= ( + X1 4 ) X15 )  ( <= ( + X15 54 ) X1 )  ( <= ( + Y1 65 ) Y15 )  ( <= ( + Y15 56 ) Y1 )  )
( or ( <= ( + X1 4 ) X16 )  ( <= ( + X16 58 ) X1 )  ( <= ( + Y1 65 ) Y16 )  ( <= ( + Y16 11 ) Y1 )  )
( or ( <= ( + X1 4 ) X17 )  ( <= ( + X17 79 ) X1 )  ( <= ( + Y1 65 ) Y17 )  ( <= ( + Y17 100 ) Y1 )  )
( or ( <= ( + X2 100 ) X3 )  ( <= ( + X3 2 ) X2 )  ( <= ( + Y2 15 ) Y3 )  ( <= ( + Y3 96 ) Y2 )  )
( or ( <= ( + X2 100 ) X4 )  ( <= ( + X4 62 ) X2 )  ( <= ( + Y2 15 ) Y4 )  ( <= ( + Y4 52 ) Y2 )  )
( or ( <= ( + X2 100 ) X5 )  ( <= ( + X5 37 ) X2 )  ( <= ( + Y2 15 ) Y5 )  ( <= ( + Y5 96 ) Y2 )  )
( or ( <= ( + X2 100 ) X6 )  ( <= ( + X6 34 ) X2 )  ( <= ( + Y2 15 ) Y6 )  ( <= ( + Y6 44 ) Y2 )  )
( or ( <= ( + X2 100 ) X7 )  ( <= ( + X7 1 ) X2 )  ( <= ( + Y2 15 ) Y7 )  ( <= ( + Y7 2 ) Y2 )  )
( or ( <= ( + X2 100 ) X8 )  ( <= ( + X8 51 ) X2 )  ( <= ( + Y2 15 ) Y8 )  ( <= ( + Y8 50 ) Y2 )  )
( or ( <= ( + X2 100 ) X9 )  ( <= ( + X9 98 ) X2 )  ( <= ( + Y2 15 ) Y9 )  ( <= ( + Y9 83 ) Y2 )  )
( or ( <= ( + X2 100 ) X10 )  ( <= ( + X10 7 ) X2 )  ( <= ( + Y2 15 ) Y10 )  ( <= ( + Y10 93 ) Y2 )  )
( or ( <= ( + X2 100 ) X11 )  ( <= ( + X11 51 ) X2 )  ( <= ( + Y2 15 ) Y11 )  ( <= ( + Y11 32 ) Y2 )  )
( or ( <= ( + X2 100 ) X12 )  ( <= ( + X12 36 ) X2 )  ( <= ( + Y2 15 ) Y12 )  ( <= ( + Y12 56 ) Y2 )  )
( or ( <= ( + X2 100 ) X13 )  ( <= ( + X13 7 ) X2 )  ( <= ( + Y2 15 ) Y13 )  ( <= ( + Y13 10 ) Y2 )  )
( or ( <= ( + X2 100 ) X14 )  ( <= ( + X14 64 ) X2 )  ( <= ( + Y2 15 ) Y14 )  ( <= ( + Y14 87 ) Y2 )  )
( or ( <= ( + X2 100 ) X15 )  ( <= ( + X15 54 ) X2 )  ( <= ( + Y2 15 ) Y15 )  ( <= ( + Y15 56 ) Y2 )  )
( or ( <= ( + X2 100 ) X16 )  ( <= ( + X16 58 ) X2 )  ( <= ( + Y2 15 ) Y16 )  ( <= ( + Y16 11 ) Y2 )  )
( or ( <= ( + X2 100 ) X17 )  ( <= ( + X17 79 ) X2 )  ( <= ( + Y2 15 ) Y17 )  ( <= ( + Y17 100 ) Y2 )  )
( or ( <= ( + X3 2 ) X4 )  ( <= ( + X4 62 ) X3 )  ( <= ( + Y3 96 ) Y4 )  ( <= ( + Y4 52 ) Y3 )  )
( or ( <= ( + X3 2 ) X5 )  ( <= ( + X5 37 ) X3 )  ( <= ( + Y3 96 ) Y5 )  ( <= ( + Y5 96 ) Y3 )  )
( or ( <= ( + X3 2 ) X6 )  ( <= ( + X6 34 ) X3 )  ( <= ( + Y3 96 ) Y6 )  ( <= ( + Y6 44 ) Y3 )  )
( or ( <= ( + X3 2 ) X7 )  ( <= ( + X7 1 ) X3 )  ( <= ( + Y3 96 ) Y7 )  ( <= ( + Y7 2 ) Y3 )  )
( or ( <= ( + X3 2 ) X8 )  ( <= ( + X8 51 ) X3 )  ( <= ( + Y3 96 ) Y8 )  ( <= ( + Y8 50 ) Y3 )  )
( or ( <= ( + X3 2 ) X9 )  ( <= ( + X9 98 ) X3 )  ( <= ( + Y3 96 ) Y9 )  ( <= ( + Y9 83 ) Y3 )  )
( or ( <= ( + X3 2 ) X10 )  ( <= ( + X10 7 ) X3 )  ( <= ( + Y3 96 ) Y10 )  ( <= ( + Y10 93 ) Y3 )  )
( or ( <= ( + X3 2 ) X11 )  ( <= ( + X11 51 ) X3 )  ( <= ( + Y3 96 ) Y11 )  ( <= ( + Y11 32 ) Y3 )  )
( or ( <= ( + X3 2 ) X12 )  ( <= ( + X12 36 ) X3 )  ( <= ( + Y3 96 ) Y12 )  ( <= ( + Y12 56 ) Y3 )  )
( or ( <= ( + X3 2 ) X13 )  ( <= ( + X13 7 ) X3 )  ( <= ( + Y3 96 ) Y13 )  ( <= ( + Y13 10 ) Y3 )  )
( or ( <= ( + X3 2 ) X14 )  ( <= ( + X14 64 ) X3 )  ( <= ( + Y3 96 ) Y14 )  ( <= ( + Y14 87 ) Y3 )  )
( or ( <= ( + X3 2 ) X15 )  ( <= ( + X15 54 ) X3 )  ( <= ( + Y3 96 ) Y15 )  ( <= ( + Y15 56 ) Y3 )  )
( or ( <= ( + X3 2 ) X16 )  ( <= ( + X16 58 ) X3 )  ( <= ( + Y3 96 ) Y16 )  ( <= ( + Y16 11 ) Y3 )  )
( or ( <= ( + X3 2 ) X17 )  ( <= ( + X17 79 ) X3 )  ( <= ( + Y3 96 ) Y17 )  ( <= ( + Y17 100 ) Y3 )  )
( or ( <= ( + X4 62 ) X5 )  ( <= ( + X5 37 ) X4 )  ( <= ( + Y4 52 ) Y5 )  ( <= ( + Y5 96 ) Y4 )  )
( or ( <= ( + X4 62 ) X6 )  ( <= ( + X6 34 ) X4 )  ( <= ( + Y4 52 ) Y6 )  ( <= ( + Y6 44 ) Y4 )  )
( or ( <= ( + X4 62 ) X7 )  ( <= ( + X7 1 ) X4 )  ( <= ( + Y4 52 ) Y7 )  ( <= ( + Y7 2 ) Y4 )  )
( or ( <= ( + X4 62 ) X8 )  ( <= ( + X8 51 ) X4 )  ( <= ( + Y4 52 ) Y8 )  ( <= ( + Y8 50 ) Y4 )  )
( or ( <= ( + X4 62 ) X9 )  ( <= ( + X9 98 ) X4 )  ( <= ( + Y4 52 ) Y9 )  ( <= ( + Y9 83 ) Y4 )  )
( or ( <= ( + X4 62 ) X10 )  ( <= ( + X10 7 ) X4 )  ( <= ( + Y4 52 ) Y10 )  ( <= ( + Y10 93 ) Y4 )  )
( or ( <= ( + X4 62 ) X11 )  ( <= ( + X11 51 ) X4 )  ( <= ( + Y4 52 ) Y11 )  ( <= ( + Y11 32 ) Y4 )  )
( or ( <= ( + X4 62 ) X12 )  ( <= ( + X12 36 ) X4 )  ( <= ( + Y4 52 ) Y12 )  ( <= ( + Y12 56 ) Y4 )  )
( or ( <= ( + X4 62 ) X13 )  ( <= ( + X13 7 ) X4 )  ( <= ( + Y4 52 ) Y13 )  ( <= ( + Y13 10 ) Y4 )  )
( or ( <= ( + X4 62 ) X14 )  ( <= ( + X14 64 ) X4 )  ( <= ( + Y4 52 ) Y14 )  ( <= ( + Y14 87 ) Y4 )  )
( or ( <= ( + X4 62 ) X15 )  ( <= ( + X15 54 ) X4 )  ( <= ( + Y4 52 ) Y15 )  ( <= ( + Y15 56 ) Y4 )  )
( or ( <= ( + X4 62 ) X16 )  ( <= ( + X16 58 ) X4 )  ( <= ( + Y4 52 ) Y16 )  ( <= ( + Y16 11 ) Y4 )  )
( or ( <= ( + X4 62 ) X17 )  ( <= ( + X17 79 ) X4 )  ( <= ( + Y4 52 ) Y17 )  ( <= ( + Y17 100 ) Y4 )  )
( or ( <= ( + X5 37 ) X6 )  ( <= ( + X6 34 ) X5 )  ( <= ( + Y5 96 ) Y6 )  ( <= ( + Y6 44 ) Y5 )  )
( or ( <= ( + X5 37 ) X7 )  ( <= ( + X7 1 ) X5 )  ( <= ( + Y5 96 ) Y7 )  ( <= ( + Y7 2 ) Y5 )  )
( or ( <= ( + X5 37 ) X8 )  ( <= ( + X8 51 ) X5 )  ( <= ( + Y5 96 ) Y8 )  ( <= ( + Y8 50 ) Y5 )  )
( or ( <= ( + X5 37 ) X9 )  ( <= ( + X9 98 ) X5 )  ( <= ( + Y5 96 ) Y9 )  ( <= ( + Y9 83 ) Y5 )  )
( or ( <= ( + X5 37 ) X10 )  ( <= ( + X10 7 ) X5 )  ( <= ( + Y5 96 ) Y10 )  ( <= ( + Y10 93 ) Y5 )  )
( or ( <= ( + X5 37 ) X11 )  ( <= ( + X11 51 ) X5 )  ( <= ( + Y5 96 ) Y11 )  ( <= ( + Y11 32 ) Y5 )  )
( or ( <= ( + X5 37 ) X12 )  ( <= ( + X12 36 ) X5 )  ( <= ( + Y5 96 ) Y12 )  ( <= ( + Y12 56 ) Y5 )  )
( or ( <= ( + X5 37 ) X13 )  ( <= ( + X13 7 ) X5 )  ( <= ( + Y5 96 ) Y13 )  ( <= ( + Y13 10 ) Y5 )  )
( or ( <= ( + X5 37 ) X14 )  ( <= ( + X14 64 ) X5 )  ( <= ( + Y5 96 ) Y14 )  ( <= ( + Y14 87 ) Y5 )  )
( or ( <= ( + X5 37 ) X15 )  ( <= ( + X15 54 ) X5 )  ( <= ( + Y5 96 ) Y15 )  ( <= ( + Y15 56 ) Y5 )  )
( or ( <= ( + X5 37 ) X16 )  ( <= ( + X16 58 ) X5 )  ( <= ( + Y5 96 ) Y16 )  ( <= ( + Y16 11 ) Y5 )  )
( or ( <= ( + X5 37 ) X17 )  ( <= ( + X17 79 ) X5 )  ( <= ( + Y5 96 ) Y17 )  ( <= ( + Y17 100 ) Y5 )  )
( or ( <= ( + X6 34 ) X7 )  ( <= ( + X7 1 ) X6 )  ( <= ( + Y6 44 ) Y7 )  ( <= ( + Y7 2 ) Y6 )  )
( or ( <= ( + X6 34 ) X8 )  ( <= ( + X8 51 ) X6 )  ( <= ( + Y6 44 ) Y8 )  ( <= ( + Y8 50 ) Y6 )  )
( or ( <= ( + X6 34 ) X9 )  ( <= ( + X9 98 ) X6 )  ( <= ( + Y6 44 ) Y9 )  ( <= ( + Y9 83 ) Y6 )  )
( or ( <= ( + X6 34 ) X10 )  ( <= ( + X10 7 ) X6 )  ( <= ( + Y6 44 ) Y10 )  ( <= ( + Y10 93 ) Y6 )  )
( or ( <= ( + X6 34 ) X11 )  ( <= ( + X11 51 ) X6 )  ( <= ( + Y6 44 ) Y11 )  ( <= ( + Y11 32 ) Y6 )  )
( or ( <= ( + X6 34 ) X12 )  ( <= ( + X12 36 ) X6 )  ( <= ( + Y6 44 ) Y12 )  ( <= ( + Y12 56 ) Y6 )  )
( or ( <= ( + X6 34 ) X13 )  ( <= ( + X13 7 ) X6 )  ( <= ( + Y6 44 ) Y13 )  ( <= ( + Y13 10 ) Y6 )  )
( or ( <= ( + X6 34 ) X14 )  ( <= ( + X14 64 ) X6 )  ( <= ( + Y6 44 ) Y14 )  ( <= ( + Y14 87 ) Y6 )  )
( or ( <= ( + X6 34 ) X15 )  ( <= ( + X15 54 ) X6 )  ( <= ( + Y6 44 ) Y15 )  ( <= ( + Y15 56 ) Y6 )  )
( or ( <= ( + X6 34 ) X16 )  ( <= ( + X16 58 ) X6 )  ( <= ( + Y6 44 ) Y16 )  ( <= ( + Y16 11 ) Y6 )  )
( or ( <= ( + X6 34 ) X17 )  ( <= ( + X17 79 ) X6 )  ( <= ( + Y6 44 ) Y17 )  ( <= ( + Y17 100 ) Y6 )  )
( or ( <= ( + X7 1 ) X8 )  ( <= ( + X8 51 ) X7 )  ( <= ( + Y7 2 ) Y8 )  ( <= ( + Y8 50 ) Y7 )  )
( or ( <= ( + X7 1 ) X9 )  ( <= ( + X9 98 ) X7 )  ( <= ( + Y7 2 ) Y9 )  ( <= ( + Y9 83 ) Y7 )  )
( or ( <= ( + X7 1 ) X10 )  ( <= ( + X10 7 ) X7 )  ( <= ( + Y7 2 ) Y10 )  ( <= ( + Y10 93 ) Y7 )  )
( or ( <= ( + X7 1 ) X11 )  ( <= ( + X11 51 ) X7 )  ( <= ( + Y7 2 ) Y11 )  ( <= ( + Y11 32 ) Y7 )  )
( or ( <= ( + X7 1 ) X12 )  ( <= ( + X12 36 ) X7 )  ( <= ( + Y7 2 ) Y12 )  ( <= ( + Y12 56 ) Y7 )  )
( or ( <= ( + X7 1 ) X13 )  ( <= ( + X13 7 ) X7 )  ( <= ( + Y7 2 ) Y13 )  ( <= ( + Y13 10 ) Y7 )  )
( or ( <= ( + X7 1 ) X14 )  ( <= ( + X14 64 ) X7 )  ( <= ( + Y7 2 ) Y14 )  ( <= ( + Y14 87 ) Y7 )  )
( or ( <= ( + X7 1 ) X15 )  ( <= ( + X15 54 ) X7 )  ( <= ( + Y7 2 ) Y15 )  ( <= ( + Y15 56 ) Y7 )  )
( or ( <= ( + X7 1 ) X16 )  ( <= ( + X16 58 ) X7 )  ( <= ( + Y7 2 ) Y16 )  ( <= ( + Y16 11 ) Y7 )  )
( or ( <= ( + X7 1 ) X17 )  ( <= ( + X17 79 ) X7 )  ( <= ( + Y7 2 ) Y17 )  ( <= ( + Y17 100 ) Y7 )  )
( or ( <= ( + X8 51 ) X9 )  ( <= ( + X9 98 ) X8 )  ( <= ( + Y8 50 ) Y9 )  ( <= ( + Y9 83 ) Y8 )  )
( or ( <= ( + X8 51 ) X10 )  ( <= ( + X10 7 ) X8 )  ( <= ( + Y8 50 ) Y10 )  ( <= ( + Y10 93 ) Y8 )  )
( or ( <= ( + X8 51 ) X11 )  ( <= ( + X11 51 ) X8 )  ( <= ( + Y8 50 ) Y11 )  ( <= ( + Y11 32 ) Y8 )  )
( or ( <= ( + X8 51 ) X12 )  ( <= ( + X12 36 ) X8 )  ( <= ( + Y8 50 ) Y12 )  ( <= ( + Y12 56 ) Y8 )  )
( or ( <= ( + X8 51 ) X13 )  ( <= ( + X13 7 ) X8 )  ( <= ( + Y8 50 ) Y13 )  ( <= ( + Y13 10 ) Y8 )  )
( or ( <= ( + X8 51 ) X14 )  ( <= ( + X14 64 ) X8 )  ( <= ( + Y8 50 ) Y14 )  ( <= ( + Y14 87 ) Y8 )  )
( or ( <= ( + X8 51 ) X15 )  ( <= ( + X15 54 ) X8 )  ( <= ( + Y8 50 ) Y15 )  ( <= ( + Y15 56 ) Y8 )  )
( or ( <= ( + X8 51 ) X16 )  ( <= ( + X16 58 ) X8 )  ( <= ( + Y8 50 ) Y16 )  ( <= ( + Y16 11 ) Y8 )  )
( or ( <= ( + X8 51 ) X17 )  ( <= ( + X17 79 ) X8 )  ( <= ( + Y8 50 ) Y17 )  ( <= ( + Y17 100 ) Y8 )  )
( or ( <= ( + X9 98 ) X10 )  ( <= ( + X10 7 ) X9 )  ( <= ( + Y9 83 ) Y10 )  ( <= ( + Y10 93 ) Y9 )  )
( or ( <= ( + X9 98 ) X11 )  ( <= ( + X11 51 ) X9 )  ( <= ( + Y9 83 ) Y11 )  ( <= ( + Y11 32 ) Y9 )  )
( or ( <= ( + X9 98 ) X12 )  ( <= ( + X12 36 ) X9 )  ( <= ( + Y9 83 ) Y12 )  ( <= ( + Y12 56 ) Y9 )  )
( or ( <= ( + X9 98 ) X13 )  ( <= ( + X13 7 ) X9 )  ( <= ( + Y9 83 ) Y13 )  ( <= ( + Y13 10 ) Y9 )  )
( or ( <= ( + X9 98 ) X14 )  ( <= ( + X14 64 ) X9 )  ( <= ( + Y9 83 ) Y14 )  ( <= ( + Y14 87 ) Y9 )  )
( or ( <= ( + X9 98 ) X15 )  ( <= ( + X15 54 ) X9 )  ( <= ( + Y9 83 ) Y15 )  ( <= ( + Y15 56 ) Y9 )  )
( or ( <= ( + X9 98 ) X16 )  ( <= ( + X16 58 ) X9 )  ( <= ( + Y9 83 ) Y16 )  ( <= ( + Y16 11 ) Y9 )  )
( or ( <= ( + X9 98 ) X17 )  ( <= ( + X17 79 ) X9 )  ( <= ( + Y9 83 ) Y17 )  ( <= ( + Y17 100 ) Y9 )  )
( or ( <= ( + X10 7 ) X11 )  ( <= ( + X11 51 ) X10 )  ( <= ( + Y10 93 ) Y11 )  ( <= ( + Y11 32 ) Y10 )  )
( or ( <= ( + X10 7 ) X12 )  ( <= ( + X12 36 ) X10 )  ( <= ( + Y10 93 ) Y12 )  ( <= ( + Y12 56 ) Y10 )  )
( or ( <= ( + X10 7 ) X13 )  ( <= ( + X13 7 ) X10 )  ( <= ( + Y10 93 ) Y13 )  ( <= ( + Y13 10 ) Y10 )  )
( or ( <= ( + X10 7 ) X14 )  ( <= ( + X14 64 ) X10 )  ( <= ( + Y10 93 ) Y14 )  ( <= ( + Y14 87 ) Y10 )  )
( or ( <= ( + X10 7 ) X15 )  ( <= ( + X15 54 ) X10 )  ( <= ( + Y10 93 ) Y15 )  ( <= ( + Y15 56 ) Y10 )  )
( or ( <= ( + X10 7 ) X16 )  ( <= ( + X16 58 ) X10 )  ( <= ( + Y10 93 ) Y16 )  ( <= ( + Y16 11 ) Y10 )  )
( or ( <= ( + X10 7 ) X17 )  ( <= ( + X17 79 ) X10 )  ( <= ( + Y10 93 ) Y17 )  ( <= ( + Y17 100 ) Y10 )  )
( or ( <= ( + X11 51 ) X12 )  ( <= ( + X12 36 ) X11 )  ( <= ( + Y11 32 ) Y12 )  ( <= ( + Y12 56 ) Y11 )  )
( or ( <= ( + X11 51 ) X13 )  ( <= ( + X13 7 ) X11 )  ( <= ( + Y11 32 ) Y13 )  ( <= ( + Y13 10 ) Y11 )  )
( or ( <= ( + X11 51 ) X14 )  ( <= ( + X14 64 ) X11 )  ( <= ( + Y11 32 ) Y14 )  ( <= ( + Y14 87 ) Y11 )  )
( or ( <= ( + X11 51 ) X15 )  ( <= ( + X15 54 ) X11 )  ( <= ( + Y11 32 ) Y15 )  ( <= ( + Y15 56 ) Y11 )  )
( or ( <= ( + X11 51 ) X16 )  ( <= ( + X16 58 ) X11 )  ( <= ( + Y11 32 ) Y16 )  ( <= ( + Y16 11 ) Y11 )  )
( or ( <= ( + X11 51 ) X17 )  ( <= ( + X17 79 ) X11 )  ( <= ( + Y11 32 ) Y17 )  ( <= ( + Y17 100 ) Y11 )  )
( or ( <= ( + X12 36 ) X13 )  ( <= ( + X13 7 ) X12 )  ( <= ( + Y12 56 ) Y13 )  ( <= ( + Y13 10 ) Y12 )  )
( or ( <= ( + X12 36 ) X14 )  ( <= ( + X14 64 ) X12 )  ( <= ( + Y12 56 ) Y14 )  ( <= ( + Y14 87 ) Y12 )  )
( or ( <= ( + X12 36 ) X15 )  ( <= ( + X15 54 ) X12 )  ( <= ( + Y12 56 ) Y15 )  ( <= ( + Y15 56 ) Y12 )  )
( or ( <= ( + X12 36 ) X16 )  ( <= ( + X16 58 ) X12 )  ( <= ( + Y12 56 ) Y16 )  ( <= ( + Y16 11 ) Y12 )  )
( or ( <= ( + X12 36 ) X17 )  ( <= ( + X17 79 ) X12 )  ( <= ( + Y12 56 ) Y17 )  ( <= ( + Y17 100 ) Y12 )  )
( or ( <= ( + X13 7 ) X14 )  ( <= ( + X14 64 ) X13 )  ( <= ( + Y13 10 ) Y14 )  ( <= ( + Y14 87 ) Y13 )  )
( or ( <= ( + X13 7 ) X15 )  ( <= ( + X15 54 ) X13 )  ( <= ( + Y13 10 ) Y15 )  ( <= ( + Y15 56 ) Y13 )  )
( or ( <= ( + X13 7 ) X16 )  ( <= ( + X16 58 ) X13 )  ( <= ( + Y13 10 ) Y16 )  ( <= ( + Y16 11 ) Y13 )  )
( or ( <= ( + X13 7 ) X17 )  ( <= ( + X17 79 ) X13 )  ( <= ( + Y13 10 ) Y17 )  ( <= ( + Y17 100 ) Y13 )  )
( or ( <= ( + X14 64 ) X15 )  ( <= ( + X15 54 ) X14 )  ( <= ( + Y14 87 ) Y15 )  ( <= ( + Y15 56 ) Y14 )  )
( or ( <= ( + X14 64 ) X16 )  ( <= ( + X16 58 ) X14 )  ( <= ( + Y14 87 ) Y16 )  ( <= ( + Y16 11 ) Y14 )  )
( or ( <= ( + X14 64 ) X17 )  ( <= ( + X17 79 ) X14 )  ( <= ( + Y14 87 ) Y17 )  ( <= ( + Y17 100 ) Y14 )  )
( or ( <= ( + X15 54 ) X16 )  ( <= ( + X16 58 ) X15 )  ( <= ( + Y15 56 ) Y16 )  ( <= ( + Y16 11 ) Y15 )  )
( or ( <= ( + X15 54 ) X17 )  ( <= ( + X17 79 ) X15 )  ( <= ( + Y15 56 ) Y17 )  ( <= ( + Y17 100 ) Y15 )  )
( or ( <= ( + X16 58 ) X17 )  ( <= ( + X17 79 ) X16 )  ( <= ( + Y16 11 ) Y17 )  ( <= ( + Y17 100 ) Y16 )  )
( >= X0 0)
( <= ( + X0 18) Z)
( >= Y0 0)
( <= ( + Y0 72 ) 212)
( >= X1 0)
( <= ( + X1 4) Z)
( >= Y1 0)
( <= ( + Y1 65 ) 212)
( >= X2 0)
( <= ( + X2 100) Z)
( >= Y2 0)
( <= ( + Y2 15 ) 212)
( >= X3 0)
( <= ( + X3 2) Z)
( >= Y3 0)
( <= ( + Y3 96 ) 212)
( >= X4 0)
( <= ( + X4 62) Z)
( >= Y4 0)
( <= ( + Y4 52 ) 212)
( >= X5 0)
( <= ( + X5 37) Z)
( >= Y5 0)
( <= ( + Y5 96 ) 212)
( >= X6 0)
( <= ( + X6 34) Z)
( >= Y6 0)
( <= ( + Y6 44 ) 212)
( >= X7 0)
( <= ( + X7 1) Z)
( >= Y7 0)
( <= ( + Y7 2 ) 212)
( >= X8 0)
( <= ( + X8 51) Z)
( >= Y8 0)
( <= ( + Y8 50 ) 212)
( >= X9 0)
( <= ( + X9 98) Z)
( >= Y9 0)
( <= ( + Y9 83 ) 212)
( >= X10 0)
( <= ( + X10 7) Z)
( >= Y10 0)
( <= ( + Y10 93 ) 212)
( >= X11 0)
( <= ( + X11 51) Z)
( >= Y11 0)
( <= ( + Y11 32 ) 212)
( >= X12 0)
( <= ( + X12 36) Z)
( >= Y12 0)
( <= ( + Y12 56 ) 212)
( >= X13 0)
( <= ( + X13 7) Z)
( >= Y13 0)
( <= ( + Y13 10 ) 212)
( >= X14 0)
( <= ( + X14 64) Z)
( >= Y14 0)
( <= ( + Y14 87 ) 212)
( >= X15 0)
( <= ( + X15 54) Z)
( >= Y15 0)
( <= ( + Y15 56 ) 212)
( >= X16 0)
( <= ( + X16 58) Z)
( >= Y16 0)
( <= ( + Y16 11 ) 212)
( >= X17 0)
( <= ( + X17 79) Z)
( >= Y17 0)
( <= ( + Y17 100 ) 212)
) )
(minimize Z)
(check-sat)
